solution status: time limit reached
objective value:                       3.999999918065
shell_j_thingy.thingy.chamber[1].first.vcollect                    1 	(obj:0)
shell_i_thingy.thingy.chamber[1].first.vbead                    1 	(obj:0)
shell_j_thingy.thingy.chamber[3].first.vinlet                    1 	(obj:0)
shell_j_thingy.thingy.chamber[2].first.voutlet                    1 	(obj:0)
shell_j_thingy.thingy.chamber[1].first.voutlet                    1 	(obj:0)
shell_j_thingy.thingy.chamber[0].first.vbead                    1 	(obj:0)
shell_j_thingy.thingy.chamber[2].first.vcollect                    1 	(obj:0)
shell_j_thingy.thingy.chamber[0].first.vinlet                    1 	(obj:0)
shell_i_thingy.thingy.chamber[3].first.vcollect                    1 	(obj:0)
shell_j_thingy.thingy.chamber[1].first.vinlet                    1 	(obj:0)
shell_i_thingy.thingy.vinlet.valves[0].vinlet                    1 	(obj:0)
shell_j_thingy.thingy.chamber[0].first.vcollect                    1 	(obj:0)
shell_i_thingy.thingy.chamber[0].first.voutlet                    1 	(obj:0)
shell_j_thingy.thingy.prep.vout1                    1 	(obj:0)
shell_j_thingy.thingy.vinlet.valves[1].vinlet                    1 	(obj:0)
shell_j_thingy.thingy.chamber[3].first.voutlet                    1 	(obj:0)
shell_j_thingy.thingy.vinlet.valves[2].vinlet                    1 	(obj:0)
shell_j_thingy.thingy.chamber[2].first.vbead                    1 	(obj:0)
shell_j_thingy.thingy.prep.vout2                    1 	(obj:0)
shell_j_thingy.thingy.vinlet.valves[3].vinlet                    1 	(obj:0)
shell_i_thingy.thingy.chamber[2].first.vinlet                    1 	(obj:0)
shell_i_thingy.thingy.chamber[3].first.vbead                    1 	(obj:0)
shell_j_thingy.thingy.vinlet.valves[4].vinlet                    1 	(obj:0)
thingy.thingy.chamber[1].first.vinlet_y                    9 	(obj:0)
thingy.thingy.chamber[1].first.vinlet_z                   23 	(obj:0)
thingy.thingy.chamber[1].first.vbead_y     8.00000002795967 	(obj:0)
thingy.thingy.chamber[1].first.vbead_z                   21 	(obj:0)
thingy.thingy.vinlet.valves[0].vinlet_x                    9 	(obj:0)
thingy.thingy.vinlet.valves[0].vinlet_y     8.00000000438969 	(obj:0)
thingy.thingy.vinlet.valves[0].vinlet_z                   24 	(obj:0)
thingy.thingy.chamber[1].first.voutlet_x                    7 	(obj:0)
thingy.thingy.chamber[1].first.voutlet_y                    9 	(obj:0)
thingy.thingy.chamber[0].first.vcollect_x                    5 	(obj:0)
thingy.thingy.chamber[0].first.vcollect_y                    9 	(obj:0)
thingy.thingy.chamber[0].first.vcollect_z                   23 	(obj:0)
thingy.thingy.chamber[1].first.voutlet_z                   23 	(obj:0)
thingy.thingy.chamber[1].first.vcollect_z                   23 	(obj:0)
thingy.thingy.chamber[0].first.voutlet_x                    9 	(obj:0)
thingy.thingy.chamber[0].first.voutlet_y     8.00000000736597 	(obj:0)
thingy.thingy.chamber[0].first.voutlet_z     21.9999999986045 	(obj:0)
thingy.thingy.chamber[1].first.vcollect_x                    6 	(obj:0)
thingy.thingy.chamber[0].first.vbead_x                    8 	(obj:0)
thingy.thingy.prep.vout1_x                          6 	(obj:0)
thingy.thingy.prep.vout1_y                          9 	(obj:0)
thingy.thingy.prep.vout1_z                         22 	(obj:0)
thingy.thingy.chamber[0].first.vbead_y                    9 	(obj:0)
thingy.thingy.chamber[0].first.vbead_z                   22 	(obj:0)
thingy.thingy.vinlet.valves[1].vinlet_x                    8 	(obj:0)
thingy.thingy.vinlet.valves[1].vinlet_y                    9 	(obj:0)
thingy.thingy.vinlet.valves[1].vinlet_z                   25 	(obj:0)
thingy.thingy.chamber[3].first.vinlet_x                    9 	(obj:0)
thingy.thingy.chamber[3].first.vinlet_y                    9 	(obj:0)
thingy.thingy.chamber[3].first.voutlet_x                    8 	(obj:0)
thingy.thingy.chamber[3].first.voutlet_y                    9 	(obj:0)
thingy.thingy.chamber[3].first.voutlet_z                   21 	(obj:0)
thingy.thingy.chamber[2].first.vcollect_x                    8 	(obj:0)
thingy.thingy.chamber[2].first.vcollect_y                    9 	(obj:0)
thingy.thingy.vinlet.valves[2].vinlet_x                    9 	(obj:0)
thingy.thingy.vinlet.valves[2].vinlet_y                    9 	(obj:0)
thingy.thingy.vinlet.valves[2].vinlet_z     22.0000000093521 	(obj:0)
thingy.thingy.chamber[2].first.vcollect_z                   24 	(obj:0)
thingy.thingy.chamber[3].first.vinlet_z                   20 	(obj:0)
thingy.thingy.chamber[2].first.vbead_x                    8 	(obj:0)
thingy.thingy.chamber[2].first.vbead_y                    9 	(obj:0)
thingy.thingy.chamber[2].first.vbead_z                   20 	(obj:0)
thingy.thingy.chamber[1].first.vcollect_y                    9 	(obj:0)
thingy.thingy.chamber[0].first.vinlet_x                    7 	(obj:0)
thingy.thingy.prep.vout2_x                          4 	(obj:0)
thingy.thingy.prep.vout2_y                          9 	(obj:0)
thingy.thingy.prep.vout2_z                         25 	(obj:0)
thingy.thingy.chamber[0].first.vinlet_y                    9 	(obj:0)
thingy.thingy.chamber[0].first.vinlet_z                   25 	(obj:0)
thingy.thingy.vinlet.valves[3].vinlet_x                    9 	(obj:0)
thingy.thingy.vinlet.valves[3].vinlet_y                    9 	(obj:0)
thingy.thingy.vinlet.valves[3].vinlet_z     21.0000000186643 	(obj:0)
thingy.thingy.chamber[1].first.vbead_x                    9 	(obj:0)
thingy.thingy.chamber[2].first.voutlet_x                    9 	(obj:0)
thingy.thingy.chamber[2].first.vinlet_x                    9 	(obj:0)
thingy.thingy.chamber[2].first.vinlet_y                    8 	(obj:0)
thingy.thingy.chamber[2].first.vinlet_z                   23 	(obj:0)
thingy.thingy.chamber[3].first.vcollect_x                    9 	(obj:0)
thingy.thingy.chamber[3].first.vcollect_y                    9 	(obj:0)
thingy.thingy.chamber[3].first.vbead_x                    9 	(obj:0)
thingy.thingy.chamber[3].first.vbead_y      8.0000000044091 	(obj:0)
thingy.thingy.chamber[3].first.vbead_z                   20 	(obj:0)
thingy.thingy.chamber[3].first.vcollect_z                   25 	(obj:0)
thingy.thingy.chamber[2].first.voutlet_y                    9 	(obj:0)
thingy.thingy.vinlet.valves[4].vinlet_x                    8 	(obj:0)
thingy.thingy.vinlet.valves[4].vinlet_y                    9 	(obj:0)
thingy.thingy.vinlet.valves[4].vinlet_z                   23 	(obj:0)
thingy.thingy.chamber[2].first.voutlet_z                   24 	(obj:0)
thingy.thingy.chamber[1].first.vinlet_x                    9 	(obj:0)
x120                                0.999999962762484 	(obj:1)
x125                             -8.55569519663774e-09 	(obj:1)
x147                                0.999999990856988 	(obj:1)
x153                                0.999999990697216 	(obj:1)
x180                                  0.9999999908597 	(obj:1)
x182                             -8.55569519663774e-09 	(obj:1)
